c turning on binary mode checking
c parsing input formula with 259840 variables and 1039924 clauses
c finished parsing, read 3486763 bytes from proof file
c detected empty clause; start verification via backward checking
c 1883 of 1039924 clauses in core                            
c 605 of 137832 lemmas in core using 12118 resolution steps
c 0 RAT lemmas in core; 25 redundant literals in core lemmas
s VERIFIED
c verification time: 1.248 seconds
